
 102   30
  10   10   10   10   10   10   10   10   10   10   10   10   10   10   10   10   10   10   10   10   10   10   10   10   10   10   10   10   10   10

   0   0   0   0   0   0   0   0   0   0   0   0   0   0   0   0   0   0   0   0   0   0   0   0   0   0   0   0   0   0   0  28 2 3 4 5 6 7 8 9 10 11 12 13 14 15 16 17 18 19 20 21 22 24 25 26 29 30 31 45 
   7   0   0   0   0   6   0   1   0   1   0   0   0   0   0   0   0   0   0   0   0   0   0   1   0   0   0   0   0   0   0  18 99 69 68 67 65 64 63 62 53 52 47 43 42 38 37 36 35 27 
   7   0   0   0   0   0   0   0   0   0   0   0   0   0   0   1   0   0   0   0   0   0   0   6   0   0   0   0   0   0   0  16 101 71 69 68 65 63 60 56 55 52 51 50 48 42 37 23 
   3   0   0   0   0   5   0   4   0   7   0   0   0   0   0   0   1   1   0   0   0   0   3   0   4   1   0   0   0   0   0  14 73 72 68 62 55 54 50 49 48 44 42 37 33 28 
   7   0   0   0   0   0   0   0   1   0   0   0   0   0   0   0   0   0   0   0   0   0   0   0   0   0   0   0   0   0   0  14 101 71 62 61 60 57 54 43 41 38 37 35 34 32 
  10   1   0   0   1   0   0   0   0   0   0   0   0   0   0   7   0   0   0   0   0   0   7   0   0   0   0   0   0   0   0  22 101 99 97 96 92 73 72 71 69 67 65 64 63 60 58 57 55 51 50 49 44 38 
   7   0   0   0   0   0   0   0   0   5   0   0   0   0   0   0   0   0   0   0   0   0   0   0   0   0   0   1   0   1   0  21 101 100 99 98 97 96 73 72 71 70 68 66 63 62 60 56 52 49 47 46 37 
   5   6   0   0   5   0   3   4   0   0   0   0   0   0   1   0   0   0   0   0   0   0   0   0   0   0   2   0   0   0   0  16 101 96 92 73 71 69 66 64 62 60 58 57 53 50 39 38 
  10   0   0   0   0   0   0   0   0   0   0   0   0   0   0   0   0   0   0   0   0   3   0   0   0   0   0   0   0   0   0  13 99 97 96 73 65 63 57 53 49 47 37 36 32 
   4   0   0   0   0   0   0   0   8   0   0   1   0   0   0   0   0   0   0   0   0   0   0   0   0   0   3   0   0   0   0  12 99 92 70 67 65 64 62 60 49 42 40 33 
   5   0   0   2   5   2   0   0   0   0   0   0   0   0   0   0   0   0   0   0   2   6   0   0   0   4   0   6   0   9   0  13 101 99 98 73 72 70 69 67 49 47 43 41 35 
   6   0   0   0   0   8   7   0   0   0   0   6   0   0   0   0   6   0   0   0   0   0   0   0   0   0   0   0   0   0   0  13 97 96 92 73 72 71 69 66 62 60 46 38 37 
   2   0   0   0   0   6   0   0   0   0   0   9   0   0   0   0   0   0   0   1   7   0   0   4   0   0   5   0   0   0   0  13 100 97 93 92 87 83 72 71 63 54 49 48 33 
   2   0   0   0   0   0   0   0   5   0   1   0   0   4   0   0   0   5   0   0   0   0   0   8   0   0   0   0   0   0   0  18 100 99 98 96 94 93 92 87 71 70 66 64 63 60 59 57 56 40 
   6   8   0   0   0   0   0   0   0   0   0   0   0   0   0   0   0   0   0   9   0   0   6   0   0   0   0   5   0   0   0  19 101 98 94 93 92 91 89 73 71 70 69 65 64 62 58 56 54 53 51 
  10   0   0   0   0   0   0   0   0   0   0   5   0   7   8   0   0   0   1   0   0   0   0   0   0   0   7   6   1   0   0  18 101 100 99 98 97 96 94 92 79 73 71 70 67 66 55 51 50 49 
   8   0   0   0   0   0   0   4   0   0   5   0   0   0   0   0   0   0   0   0   0   4   0   7   0   7   0   2   3   0   0  18 101 98 96 93 92 89 73 71 70 69 68 66 63 62 60 59 46 42 
   8   7   0   0   0   5   0   0   8   0   0   0   1   0   0   0   0   0   0   0   0   0   0   0   0   0   0   0   0   0   3  18 100 99 98 97 96 95 87 72 71 70 67 66 64 60 58 56 47 43 
  10   0   2   0   0   0   5   0   0   0   0   0   0   0   0   0   0   0   0   0   0   0   0   0   0   0   0   0   0   0   0  17 101 96 95 93 91 89 71 70 69 66 64 60 59 56 54 47 46 
   4   0   4   0   5   0   0   0   0   0  10   0   0   0   0   0   0   0   0   0   0   0   0   0   0   0   0   0   0   0   0  17 99 97 95 93 91 90 89 87 82 72 71 70 66 63 62 60 47 
   9   4   0   0   0   0   0   0   0   0   0   0   0   0   0   0   7   4   0   0   0   0   0   0   6   0   0   0   0   6   0  15 96 95 92 91 89 73 71 70 69 68 67 62 60 58 43 
   4   0   4   0   0   0   0   0   0   0   0   0   0   0   6   0   0   0   8   7   0   0   0   0   0   0   0   0   0   0   0  16 101 100 98 97 92 91 90 89 86 82 73 68 60 56 54 48 
   9   0   9   0   0   7   0   0   0   0   0   0   4   0   4   0   0   6   0   0   0   0   0   0   0   0   4   0   0   0   0  13 100 96 94 92 88 80 73 72 66 59 54 49 46 
   2   0   0   0   0   0   6   3   0   0   0   0   0   0   0   0   4   0   0   0   0   0   0   0   0   0   3   0   0   0   3  18 100 97 94 93 91 90 89 84 78 77 74 71 70 68 66 60 58 56 
   4   0   0   0   0   5   0   0   0   0   0   0   0   0   0   0   0   5   0   0   5   0   0   0   0   6   0   0   0   0   0  14 96 95 92 91 90 89 87 85 67 64 62 60 58 53 
   9   0   4   0   0   0   0   0   0   0   0   0   5   0   5   0   0   0   0   0   0   0   0   0   0   0   0   0   0   0   0  12 98 97 90 89 81 71 70 68 67 66 59 47 
   3   0   0   3   7   0   0   8   0   0   0   0   0   2   0   0   0   0   0   0   0   0   0   0   0   0   0   0   7   0   0  10 101 98 92 84 73 66 58 57 49 48 
  10   0   0   0   0   0   0   0   0   0   7   0   9  10   0   0   0   6   0   0   0   0   0   7   0   0   0   4   0   0   8  12 99 98 91 90 89 88 84 70 67 66 47 46 
   7   4   0   5   0   0   3   9   0   5   0   0   0   0   0   0   0   0   0   0   0   0   0   8   0   0   0  10   0   7   0  18 96 94 92 91 90 89 87 84 83 79 78 76 74 71 70 67 66 58 
   5   0   5   0   0   0   0   0   0   0   0   0   0   0   0   0   0   0   0   0   0   0   0   0   0   0   0   4   0   0   0  16 98 95 92 91 90 89 87 86 81 78 76 73 72 70 67 59 
   9   0   0   0   0   0   0   0   0   0   0   0   0   0   0   0   0   0   0   0   0   4   5   0   0   0   0   0   0   0   0  11 100 94 91 83 79 78 76 71 59 58 55 
   2   0   0   0   0  10   0   0   0   0   0   0   0   0   0   0   0   0   0   0   0   6   0   0   0   0   0   0   0   0   0  16 94 93 91 90 88 87 84 83 79 78 76 74 70 67 66 58 
   1   0   0   0   0   0   0   0   9   0   0   0   7   0   0   0   0   0   7   4   0   0  10   0   0   0   0   0   0   0   0  13 101 98 96 94 90 88 86 79 78 76 66 59 57 
   8   0   0   3   0   0   5   0   3   7   0   0   0   0   0   5   0  10   0   0   0   0   0   4   0   0   0   0   0   0   6  10 94 93 92 91 90 89 85 84 64 46 
   2   0   0  10   3   0   0   0   0   0   0   0   0   0   0   0   0   0   0   0   8   0   6   0   0   6   0   0   0   0   0  10 97 96 93 92 91 89 88 83 66 46 
   2   0   0   0   0   0   0   0   0   0   0   6   0   0   0   0   0   0   0   0   0   0   0  10   0   0   5   0   7   0   9  12 95 94 93 87 82 78 77 74 71 70 66 60 
   2   0   4   0   0   0   0   5   0   0   7   0   0   0   0   0   0   0   0   0   0   0   0   3   0   0   0   0   0   0   0  14 95 93 91 90 89 86 83 81 80 79 78 77 76 59 
   1   9   0   0   0   0   6   0   0   0   0   0   0   3   0  10   0   0   0   0   5   5   0   0   0   0   0   0   0   0   0  13 100 98 94 93 86 85 84 83 82 78 74 70 56 
   7   0   0   0   0   0   0   0   0   0   0   0   0   0   0   0   0   0   0   0   0   0   0   0   0   0   0   5   0   0   0  12 97 95 91 90 81 80 79 78 77 76 68 59 
   7   0   0   0   8   0   5   0   0   0   0   6   6   0   0   0   0   0   0   0   0   0   0   0   0   5   0   0   0   0   0  14 101 90 89 88 86 84 83 81 80 77 76 75 74 72 
   3   0   0   0  10  10  10   0   0   0   0   0   0   0   0   0   0   7   0   0   0   6  10   0   0   0   0   0   0   0   3  12 95 89 88 87 86 84 83 81 79 76 74 63 
   3   0   0   6   0   0   0   0   0   0   0   0   0   0   0   0   6   0   6   0   0   0   0   0   0   0   0   0   0   0   0  10 100 97 87 85 80 79 78 77 74 58 
   3   0   0   0   0   0   0   0   0   7   0   2   0   0   0   0   0   0   0   0   0   0   0   0   0   0   0   0   0   0   0  13 93 90 88 85 84 81 80 79 78 77 76 75 74 
  10   0   0   0   0   0   0   7   0   0   0   7   0   7   0   0   0   0   0   0   0   0   0   0   0   0   0   0   0   0   0  10 93 90 87 83 81 78 76 74 70 66 
   9   0   0   0   0   0   0   0   0   0   8   0   0   0   0   0   0   0   0   0   0   0   4   0   0   0   0   6   0   0   0   9 93 90 83 79 78 77 76 74 58 
   4   0   0   0   0   0   0   0   0   0   0   0   0   0   0   0   0   0   0   0   0   0   0   0   0   0   0   0   0   0   0   7 87 79 78 77 76 74 58 
   8   0   0   0   0   0   5   0   0   0   6   0   0   0   0   0   0   0   0   9   0   0   0   0   0   0   0   0   0   0   0   9 94 92 86 85 79 78 76 75 74 
  10   5   0   0   0   0   7   0   0   0   0   0   0   0   0   0   0   0   0   0   0   7   0   0   0   8   0   9   0   0   0   8 88 81 79 78 77 76 74 70 
   9   0   0   0   0   0   0   0   0   0   0   0   0   0   0  10   0   8   0   0   0   0   0   0   0   0   0   7   0   0   0   7 90 89 82 81 78 77 74 
   5   0   0   0   0   0   0   0   0   0   0   0   0   0   0   0   0   0   0   0   0   0   5   0   0   0   0   8   0   0   0   7 91 90 87 84 77 76 75 
  10   0   8   0   0   0   0   9   0   0   0   5   0   0   8   0   0   0   0   0   0   8   0   0   0   0   0   0   0   0   0   7 95 88 87 86 82 77 74 
   8   0   8   0   0   0   0   0   0   0   0   0   0   0   0   0   8   5   0   0   0   0   4   0   0   0  10   5   0   0   0   7 94 87 82 80 76 75 74 
   7   0   0   0   0   0   4   0   0   0   0   0   0   0   0   0   0   0   0   0   0   4   0   6   0   0   0   0   0   0   0   6 80 78 77 76 74 72 
   1   0   0   0   0   0   0   0   0   0   0   0   0   0   0   0   0   0   0   0   0   0   0   0   0   0   0   8   0   0   0   6 99 85 84 77 76 74 
   2   0   0   7   0   0   0   0   0   0   0   0   0   0   0   0   0   5   4   0   0   6   0   0   0   0   0   0   0   0   0   6 93 89 87 85 80 77 
   9   0   0   0   0   0   0   0   0   0   0   0   0   0   0   0   0   0   0   5   0   0   7   0   0   0   9   0   0   0   0   5 81 80 79 76 75 
   2   0   0   0   0   0   0   0   0   0   0   0   0   0   0   0   0   0   0   0   0   0   0   5   0   0   0   0   5   0   0   5 95 91 89 80 77 
   8   0   0   0   0   0   0   0   0   0   0   0   0   0   0   0   4   0   0   0   0   0   5   0   8   0   0  10   0   0   0   4 86 82 81 75 
   3   0   0   0   0   0   0   0   0   0   0  10   0   4   0   0   0   0   0   0   0   6   0   0   0   0   0   0   0   0   5   4 84 82 75 74 
   4   0   0   0   0   2   0   0   0   0   0   0   0   0   0   0   0   0   0   0   0   0   0   0   0   0   0   4   0   0   0   4 83 81 79 76 
   2   0   0   7   0   6   0   0   0   0   0   0   0   0   0   0   0   0   0   0   0   0   0   0   0   0   0   0   0   0   0   4 95 88 84 75 
   3   0   0   0   0   0   0   6   0   0   0   0   0   0   0   0   0   8   0   0   0   0   0   0   0   0   9   0   0   0   0   3 84 80 77 
   6   0   0   0   0   0   0   0   0   0   0   0   0   0   0   0   0   0   0   0   0   0   0   0   0   0   5   0   5   5   0   3 85 78 75 
   3   0   0   0   6   6   0   0   0   0   0   0   0   6   0   0   0   4   0   0   5   0   0   0   4   8   0   0   0   0   0   3 88 83 74 
   8   0   0   0   4   0   0   5   0   0   4   0   0   0   0   0   0   0   0   0   0   7   0   0   0   0   0   0   5   0   4   3 83 80 76 
   9   0   0   6   0   0   0   0   0   0   0   6   0   0   0   0   0   0   0   0   0   0   0   0   0   0   0   0   0   0   0   2 85 75 
   4   0   0   0   0   0   0   0   0   0   0   5   7   0   0   0   0   0   0   0   0   0   0   0   0   0   0   0   0   0   0   2 77 75 
   6   0   0   0   0   0   0  10   3   0   0   8   0   0   0   0   0   0   0   0   0   0   0   0   0   0   0   0   8   0   7   2 87 83 
   6   0   0   8   0   0   0   0   0   0   0   0   0   0   0   6   0   3   0   6   0   0   0   0   0   0   0   0   0   0   0   2 78 74 
   3   0   0   0   9   0   0   0   0   0   0   0   0   0   0   0   0   0   0   0   0   0   0   6   0   0   8   0   0   0   8   1 80 
   1   0   0   0   0   0   0   0   0   0   0   0   0   0   0   0   0   0   0   0   0   0   0   0   0   0   0   0  10   0   0   1 88 
  10   0   0   5   0   0   9   0   0   0   0   0   0   0   0  10   0   9   0   0   0   0   0   0   0   0   0   0   0   0   0   1 79 
   1   0   0   0   0   0   0   5   0   0   0   0   0  10   0   2   0   0   9   0   0   0   0   0   0   0   8   0   0   0   0   1 83 
   8   0   0   0   0   0   0   0   0   0   0   0   0   8   0   4   0   0   0   0   0   0   0   0   6   6   0   0   0   9   0   1 102
   3   7   0   0   0   0   0   0   0   0   0   0   0   0   0   0   8   0   0   0   0   0   0   0   0   0   0   0   0   0   0   1 102
   1   0   0   0   0   0   0   0   0   0   0   0   8   0   0   0   0   0   0   0   0   5   0   0   0   0   0   0   5   0   0   1 102
   5   0   0   0   0   0   0   0   0   0   0   0   0   0   0   0   0   0   0   6   0   0   0   0   0   0   0   0   0   0   0   1 102
   3   0   5   0   7   0   5   0   0   0   0   0   0   0   0   0   0   0   7   0   0   7   5   7   6   0   0   5   0   0   0   1 102
   7   0   0   0   0   0   0   0   0   0   0   0   0   0   0   0   0   0   0   0  10   4   0   0   0   0   0   0   0   0   0   1 102
   5   0   0   0   6   0   0   0   0   0   0   0   0   0   0   0   0   0   0   0   0   8   0   0   0   0   0   0   0   0  10   1 102
   7   0   0   0   0   0   0   0   0   0   0   0   0   4   0   0   0   0   0   0   0   0   0   0   0   0   0   0   0   0   0   1 102
   8   0   4   0   0   0   0   8   0   0   0   0   0   0   0   0   0   0   0   0   0   0   0   0   0   0   0   0   6   0   0   1 102
   2   0   0   0   0   0   0   0   0   8   0   0   0   0   0   0   0   7   0   0   0   0   0   0   0   8   0   5   0   0   0   1 102
   9   0   0   7   0   0  10   0   0   0   0   0   0   0   0   0   0   0   0   0   0   0   6   0   0   0   0   0   0   0   0   1 102
   9   0  10   0   0   0   0   0   6   0   0   0   0   0   0   0   0   0   0   0   5   0   0   0   0   0   0   0   0   0   0   1 102
   7   0  10   6   0   0   0   0   0   0   0   0   0   0   0   0   7   0   0   0   7   0   0   0   4   6   0   0   0   0   0   1 102
   2   0   0   0   0   0   0   6   0   0   0   0   0   0   6   0   0   0   0   0   0   0   0   0   0   0   0   0   0   0   0   1 102
   1   9   0   0   0   0   5   0   0   0   0   0   6   0   0   0   0   0   0   0   0   0   0   0   0   0   0   0   8   0   0   1 102
   9   0   0   0   0   0   0   0   0   0   0   0   0   0   0   0   8   0   0   0   7   0   0   0   0   0   0   0   0   0   0   1 102
   2   0   8   8   0   0   0   0   7   0   0   0   0   5   0   0   0   0   0   6   0   6   0   0   0   0   0  10   0   4   0   1 102
   6   0   0   0   0   0   0   8   0   0   0   0   9   0   8   0   0   0   0   0   6   0   4   0   0   0   0   0   0   0   0   1 102
   5   0   0  10   0   0   0   0   0   0   0   0   0   7   0   0   0   0   0   7   0   0   0   0   0   6   0   0   0   0   0   1 102
   2   0   0   0   0   0   0   0   9   0   0   0   0   0   0   0   0   5   0   0   0   0   0   0   0   0   0   0   0   0   0   1 102
   3   0   5   0   0   0   0   0   0   0   0   8   0   0   0   0   0  10   0   0   0   0   0   0   0   0   0   0   0   0   0   1 102
   3   0   0   0   0   0   0   0   0   0   0   0   5   0   0   0   0   0   0   0   5   0   0   0   0   0   0   0   0   7   0   1 102
   2   0   0   5   0   0   7   0   0   8   0   0   5   0   0   5   7   0   0   6   0   0   0   0  10   0   0   0   0   0   0   1 102
   3   0   0   5   0   0   0   0   0   0   0   0   0   0   0   0   0   0   0   0   0   5   9   0   0   0   0   0   8   0   0   1 102
   5   0   0   0   0   0   0   0   0   0   0   0   0   0   0   0   0   0   0   0   0  10   0   0   0   7   0   0   0   0   0   1 102
   3   0   0   5   6   0   0   0   7   0   0   0   0   7   0   0   0   0   0   0   0   0   0   8   0   0   0   0   0   0   0   1 102
   2   0   0   0   0   0   0   0   0   0   0   0   6   0   8   0   0   0   0   0   0   9   0   0   0   0   0   0   0   0   0   1 102
  10   0   0   0   8   0   0   0   0   0   0   0   0   0   0   0   0   0   0   0   0   0   0   0   6   0   0   0   0   0   0   1 102
   0   0   0   0   0   0   0   0   0   0   0   0   0   0   0   0   0   0   0   0   0   0   0   0   0   0   0   0   0   0   0   0 
